p tw 416 1344
1 33
2 34
3 35
4 36
5 37
6 38
7 39
8 40
9 41
10 42
11 43
12 44
13 45
14 46
15 47
16 48
17 49
18 50
19 51
20 52
21 53
22 54
23 55
24 56
25 57
26 58
27 59
28 60
29 61
30 62
31 63
32 64
33 98
33 102
33 103
33 104
34 92
34 110
34 112
34 113
35 73
35 91
35 108
35 109
36 93
36 99
36 134
36 136
37 84
37 102
37 134
37 135
38 83
38 116
38 129
38 130
39 65
39 66
39 67
39 68
40 112
40 117
40 139
40 141
41 106
41 108
41 119
41 120
42 67
42 105
42 110
42 111
43 82
43 116
43 117
43 118
44 75
44 79
44 80
44 81
45 89
45 122
45 131
45 133
46 127
46 129
46 131
46 132
47 82
47 83
47 84
47 85
48 69
48 86
48 89
48 90
49 75
49 76
49 77
49 78
50 70
50 76
50 114
50 115
51 96
51 103
51 137
51 138
52 79
52 95
52 96
52 97
53 91
53 92
53 93
53 94
54 114
54 125
54 127
54 128
55 121
55 122
55 123
55 124
56 87
56 137
56 139
56 140
57 80
57 100
57 142
57 144
58 119
58 121
58 125
58 126
59 98
59 99
59 100
59 101
60 95
60 105
60 106
60 107
61 66
61 72
61 73
61 74
62 72
62 86
62 87
62 88
63 77
63 123
63 142
63 143
64 65
64 69
64 70
64 71
65 66
65 67
65 68
65 69
65 70
65 71
66 67
66 68
66 72
66 73
66 74
67 68
67 105
67 110
67 111
68 145
68 146
68 147
68 148
69 70
69 71
69 86
69 89
69 90
70 71
70 76
70 114
70 115
71 145
71 149
71 150
71 151
72 73
72 74
72 86
72 87
72 88
73 74
73 91
73 108
73 109
74 146
74 152
74 153
74 154
75 76
75 77
75 78
75 79
75 80
75 81
76 77
76 78
76 114
76 115
77 78
77 123
77 142
77 143
78 155
78 156
78 157
78 158
79 80
79 81
79 95
79 96
79 97
80 81
80 100
80 142
80 144
81 155
81 159
81 160
81 161
82 83
82 84
82 85
82 116
82 117
82 118
83 84
83 85
83 116
83 129
83 130
84 85
84 102
84 134
84 135
85 162
85 163
85 164
85 165
86 87
86 88
86 89
86 90
87 88
87 137
87 139
87 140
88 152
88 166
88 167
88 168
89 90
89 122
89 131
89 133
90 149
90 166
90 169
90 170
91 92
91 93
91 94
91 108
91 109
92 93
92 94
92 110
92 112
92 113
93 94
93 99
93 134
93 136
94 171
94 172
94 173
94 174
95 96
95 97
95 105
95 106
95 107
96 97
96 103
96 137
96 138
97 159
97 175
97 176
97 177
98 99
98 100
98 101
98 102
98 103
98 104
99 100
99 101
99 134
99 136
100 101
100 142
100 144
101 178
101 179
101 180
101 181
102 103
102 104
102 134
102 135
103 104
103 137
103 138
104 178
104 182
104 183
104 184
105 106
105 107
105 110
105 111
106 107
106 108
106 119
106 120
107 175
107 185
107 186
107 187
108 109
108 119
108 120
109 153
109 171
109 188
109 189
110 111
110 112
110 113
111 147
111 185
111 190
111 191
112 113
112 117
112 139
112 141
113 172
113 190
113 192
113 193
114 115
114 125
114 127
114 128
115 150
115 156
115 194
115 195
116 117
116 118
116 129
116 130
117 118
117 139
117 141
118 162
118 196
118 197
118 198
119 120
119 121
119 125
119 126
120 186
120 188
120 199
120 200
121 122
121 123
121 124
121 125
121 126
122 123
122 124
122 131
122 133
123 124
123 142
123 143
124 201
124 202
124 203
124 204
125 126
125 127
125 128
126 199
126 201
126 205
126 206
127 128
127 129
127 131
127 132
128 194
128 205
128 207
128 208
129 130
129 131
129 132
130 163
130 196
130 209
130 210
131 132
131 133
132 207
132 209
132 211
132 212
133 169
133 202
133 211
133 213
134 135
134 136
135 164
135 182
135 214
135 215
136 173
136 179
136 214
136 216
137 138
137 139
137 140
138 176
138 183
138 217
138 218
139 140
139 141
140 167
140 217
140 219
140 220
141 192
141 197
141 219
141 221
142 143
142 144
143 157
143 203
143 222
143 223
144 160
144 180
144 222
144 224
145 146
145 147
145 148
145 149
145 150
145 151
146 147
146 148
146 152
146 153
146 154
147 148
147 185
147 190
147 191
148 225
148 226
148 227
148 228
149 150
149 151
149 166
149 169
149 170
150 151
150 156
150 194
150 195
151 225
151 229
151 230
151 231
152 153
152 154
152 166
152 167
152 168
153 154
153 171
153 188
153 189
154 226
154 232
154 233
154 234
155 156
155 157
155 158
155 159
155 160
155 161
156 157
156 158
156 194
156 195
157 158
157 203
157 222
157 223
158 235
158 236
158 237
158 238
159 160
159 161
159 175
159 176
159 177
160 161
160 180
160 222
160 224
161 235
161 239
161 240
161 241
162 163
162 164
162 165
162 196
162 197
162 198
163 164
163 165
163 196
163 209
163 210
164 165
164 182
164 214
164 215
165 242
165 243
165 244
165 245
166 167
166 168
166 169
166 170
167 168
167 217
167 219
167 220
168 232
168 246
168 247
168 248
169 170
169 202
169 211
169 213
170 229
170 246
170 249
170 250
171 172
171 173
171 174
171 188
171 189
172 173
172 174
172 190
172 192
172 193
173 174
173 179
173 214
173 216
174 251
174 252
174 253
174 254
175 176
175 177
175 185
175 186
175 187
176 177
176 183
176 217
176 218
177 239
177 255
177 256
177 257
178 179
178 180
178 181
178 182
178 183
178 184
179 180
179 181
179 214
179 216
180 181
180 222
180 224
181 258
181 259
181 260
181 261
182 183
182 184
182 214
182 215
183 184
183 217
183 218
184 258
184 262
184 263
184 264
185 186
185 187
185 190
185 191
186 187
186 188
186 199
186 200
187 255
187 265
187 266
187 267
188 189
188 199
188 200
189 233
189 251
189 268
189 269
190 191
190 192
190 193
191 227
191 265
191 270
191 271
192 193
192 197
192 219
192 221
193 252
193 270
193 272
193 273
194 195
194 205
194 207
194 208
195 230
195 236
195 274
195 275
196 197
196 198
196 209
196 210
197 198
197 219
197 221
198 242
198 276
198 277
198 278
199 200
199 201
199 205
199 206
200 266
200 268
200 279
200 280
201 202
201 203
201 204
201 205
201 206
202 203
202 204
202 211
202 213
203 204
203 222
203 223
204 281
204 282
204 283
204 284
205 206
205 207
205 208
206 279
206 281
206 285
206 286
207 208
207 209
207 211
207 212
208 274
208 285
208 287
208 288
209 210
209 211
209 212
210 243
210 276
210 289
210 290
211 212
211 213
212 287
212 289
212 291
212 292
213 249
213 282
213 291
213 293
214 215
214 216
215 244
215 262
215 294
215 295
216 253
216 259
216 294
216 296
217 218
217 219
217 220
218 256
218 263
218 297
218 298
219 220
219 221
220 247
220 297
220 299
220 300
221 272
221 277
221 299
221 301
222 223
222 224
223 237
223 283
223 302
223 303
224 240
224 260
224 302
224 304
225 226
225 227
225 228
225 229
225 230
225 231
226 227
226 228
226 232
226 233
226 234
227 228
227 265
227 270
227 271
228 305
228 306
228 307
228 308
229 230
229 231
229 246
229 249
229 250
230 231
230 236
230 274
230 275
231 305
231 309
231 310
231 311
232 233
232 234
232 246
232 247
232 248
233 234
233 251
233 268
233 269
234 306
234 312
234 313
234 314
235 236
235 237
235 238
235 239
235 240
235 241
236 237
236 238
236 274
236 275
237 238
237 283
237 302
237 303
238 315
238 316
238 317
238 318
239 240
239 241
239 255
239 256
239 257
240 241
240 260
240 302
240 304
241 315
241 319
241 320
241 321
242 243
242 244
242 245
242 276
242 277
242 278
243 244
243 245
243 276
243 289
243 290
244 245
244 262
244 294
244 295
245 322
245 323
245 324
245 325
246 247
246 248
246 249
246 250
247 248
247 297
247 299
247 300
248 312
248 326
248 327
248 328
249 250
249 282
249 291
249 293
250 309
250 326
250 329
250 330
251 252
251 253
251 254
251 268
251 269
252 253
252 254
252 270
252 272
252 273
253 254
253 259
253 294
253 296
254 331
254 332
254 333
254 334
255 256
255 257
255 265
255 266
255 267
256 257
256 263
256 297
256 298
257 319
257 335
257 336
257 337
258 259
258 260
258 261
258 262
258 263
258 264
259 260
259 261
259 294
259 296
260 261
260 302
260 304
261 338
261 339
261 340
261 341
262 263
262 264
262 294
262 295
263 264
263 297
263 298
264 338
264 342
264 343
264 344
265 266
265 267
265 270
265 271
266 267
266 268
266 279
266 280
267 335
267 345
267 346
267 347
268 269
268 279
268 280
269 313
269 331
269 348
269 349
270 271
270 272
270 273
271 307
271 345
271 350
271 351
272 273
272 277
272 299
272 301
273 332
273 350
273 352
273 353
274 275
274 285
274 287
274 288
275 310
275 316
275 354
275 355
276 277
276 278
276 289
276 290
277 278
277 299
277 301
278 322
278 356
278 357
278 358
279 280
279 281
279 285
279 286
280 346
280 348
280 359
280 360
281 282
281 283
281 284
281 285
281 286
282 283
282 284
282 291
282 293
283 284
283 302
283 303
284 361
284 362
284 363
284 364
285 286
285 287
285 288
286 359
286 361
286 365
286 366
287 288
287 289
287 291
287 292
288 354
288 365
288 367
288 368
289 290
289 291
289 292
290 323
290 356
290 369
290 370
291 292
291 293
292 367
292 369
292 371
292 372
293 329
293 362
293 371
293 373
294 295
294 296
295 324
295 342
295 374
295 375
296 333
296 339
296 374
296 376
297 298
297 299
297 300
298 336
298 343
298 377
298 378
299 300
299 301
300 327
300 377
300 379
300 380
301 352
301 357
301 379
301 381
302 303
302 304
303 317
303 363
303 382
303 383
304 320
304 340
304 382
304 384
305 306
305 307
305 308
305 309
305 310
305 311
306 307
306 308
306 312
306 313
306 314
307 308
307 345
307 350
307 351
308 410
309 310
309 311
309 326
309 329
309 330
310 311
310 316
310 354
310 355
311 385
312 313
312 314
312 326
312 327
312 328
313 314
313 331
313 348
313 349
314 388
315 316
315 317
315 318
315 319
315 320
315 321
316 317
316 318
316 354
316 355
317 318
317 363
317 382
317 383
318 400
319 320
319 321
319 335
319 336
319 337
320 321
320 340
320 382
320 384
321 405
322 323
322 324
322 325
322 356
322 357
322 358
323 324
323 325
323 356
323 369
323 370
324 325
324 342
324 374
324 375
325 402
326 327
326 328
326 329
326 330
327 328
327 377
327 379
327 380
328 387
329 330
329 362
329 371
329 373
330 401
331 332
331 333
331 334
331 348
331 349
332 333
332 334
332 350
332 352
332 353
333 334
333 339
333 374
333 376
334 396
335 336
335 337
335 345
335 346
335 347
336 337
336 343
336 377
336 378
337 397
338 339
338 340
338 341
338 342
338 343
338 344
339 340
339 341
339 374
339 376
340 341
340 382
340 384
341 390
342 343
342 344
342 374
342 375
343 344
343 377
343 378
344 416
345 346
345 347
345 350
345 351
346 347
346 348
346 359
346 360
347 389
348 349
348 359
348 360
349 414
350 351
350 352
350 353
351 407
352 353
352 357
352 379
352 381
353 415
354 355
354 365
354 367
354 368
355 399
356 357
356 358
356 369
356 370
357 358
357 379
357 381
358 406
359 360
359 361
359 365
359 366
360 408
361 362
361 363
361 364
361 365
361 366
362 363
362 364
362 371
362 373
363 364
363 382
363 383
364 394
365 366
365 367
365 368
366 391
367 368
367 369
367 371
367 372
368 395
369 370
369 371
369 372
370 411
371 372
371 373
372 403
373 404
374 375
374 376
375 412
376 413
377 378
377 379
377 380
378 398
379 380
379 381
380 393
381 409
382 383
382 384
383 386
384 392
